Route #1: 75 68 6 51 17 40 12 26 67 34
Route #2: 4 45 29 48 47 21 74 28 62 73
Route #3: 46 8 35 7 53 14 19 54 13 27 52 57
Route #4: 30 2 33 63 16 3 44 32 9 39 72
Route #5: 58 10 38 65 11 66 59 15 5
Route #6: 1 43 41 42 64 22 61 69 36 71 60 70 20 37 23
Route #7: 49 24 18 50 25 55 31 56
cost: 901
